branch-and-cut/resultados/B/b07.sol
111
24
43 55
9 72
9 23
38 65
48 14
26 72
30 42
28 48
65 42
28 63
63 24
43 51
26 44
28 44
65 44
29 30
44 46
70 71
46 52
65 59
9 70
43 71
38 60
36 44
